
<<< setup



Le degré maximum du graphe est : 38


Le nombre d'arrètes du graphe simple correspondant est : 290

<<< generate

 ! ----------------------------------------------------------------------------
 ! Minimization problem - 37 variables, 404 constraints
 ! Preprocessing : 290 extractables eliminated, 81 constraints generated
 ! Initial process time : 0,00s (0,00s extraction + 0,00s propagation)
 !  . Log search space  : 243,3 (before), 179,9 (after)
 !  . Memory usage      : 722,8 Kb (before), 754,8 Kb (after)
 !  . Variables fixed   : 6
 ! ----------------------------------------------------------------------------
 !   Branches  Non-fixed                Branch decision                   Best
 *        101      0,01s                         -                          11
 *        122      0,01s                  c(13)  =    5                      8
        1 000         16                  c(34)  =    2  F                   8
 *      1 196      0,04s                   c(9)  =    6                      7
 ! Search terminated, replaying optimal solution
 ! ----------------------------------------------------------------------------
 ! Solution status        : Terminated normally, optimal found (tol. = 0)
 ! Number of branches     : 1 196
 ! Number of fails        : 566
 ! Total memory usage     : 1,3 Mb (0,9 Mb CP Optimizer + 0,4 Mb Concert)
 ! Time spent in solve    : 0,04s (0,04s engine + 0,00s extraction)
 ! Search speed (br. / s) : 29 900,0
 ! ----------------------------------------------------------------------------

<<< solve


OBJECTIVE: 7
coloration : [1 2 3 4 5 6 4 5 6 7 3 1 6 3 2 5 4 7 5 4 7 6 1 2 3 1 5 2 7 4 2 7 4 1 6 3]
la matrice d'adjacence était :
 [[0 2 2 2 2 2 2 2 0 0 0 0 2 0 2 0 0 0 2 0 0 2 0 0 2 0 0 0 2 0 2 0 0 0 0 2]
         [2 0 2 2 2 2 2 2 2 0 0 0 0 2 0 2 0 0 0 2 0 0 2 0 0 2 0 0 0 2 0 2 0
         0 0 0]
         [2 2 0 2 2 2 0 2 2 2 0 0 2 0 2 0 2 0 0 0 2 0 0 2 0 0 2 0 0 0 0 0 2
         0 0 0]
         [2 2 2 0 2 2 0 0 2 2 2 0 0 2 0 2 0 2 2 0 0 2 0 0 0 0 0 2 0 0 0 0 0
         2 0 0]
         [2 2 2 2 0 2 0 0 0 2 2 2 0 0 2 0 2 0 0 2 0 0 2 0 2 0 0 0 2 0 0 0 0
         0 2 0]
         [2 2 2 2 2 0 0 0 0 0 2 2 0 0 0 2 0 2 0 0 2 0 0 2 0 2 0 0 0 2 2 0 0
         0 0 2]
         [2 2 0 0 0 0 0 2 2 2 2 2 2 2 0 0 0 0 2 0 2 0 0 0 2 0 0 2 0 0 2 0 0
         0 2 0]
         [2 2 2 0 0 0 2 0 2 2 2 2 2 2 2 0 0 0 0 2 0 2 0 0 0 2 0 0 2 0 0 2 0
         0 0 2]
         [0 2 2 2 0 0 2 2 0 2 2 2 0 2 2 2 0 0 2 0 2 0 2 0 0 0 2 0 0 2 0 0 2
         0 0 0]
         [0 0 2 2 2 0 2 2 2 0 2 2 0 0 2 2 2 0 0 2 0 2 0 2 2 0 0 2 0 0 0 0 0
         2 0 0]
         [0 0 0 2 2 2 2 2 2 2 0 2 0 0 0 2 2 2 0 0 2 0 2 0 0 2 0 0 2 0 2 0 0
         0 2 0]
         [0 0 0 0 2 2 2 2 2 2 2 0 0 0 0 0 2 2 0 0 0 2 0 2 0 0 2 0 0 2 0 2 0
         0 0 2]
         [2 0 2 0 0 0 2 2 0 0 0 0 0 2 2 2 2 2 2 2 0 0 0 0 2 0 2 0 0 0 2 0 0
         2 0 0]
         [0 2 0 2 0 0 2 2 2 0 0 0 2 0 2 2 2 2 2 2 2 0 0 0 0 2 0 2 0 0 0 2 0
         0 2 0]
         [2 0 2 0 2 0 0 2 2 2 0 0 2 2 0 2 2 2 0 2 2 2 0 0 2 0 2 0 2 0 0 0 2
         0 0 2]
         [0 2 0 2 0 2 0 0 2 2 2 0 2 2 2 0 2 2 0 0 2 2 2 0 0 2 0 2 0 2 2 0 0
         2 0 0]
         [0 0 2 0 2 0 0 0 0 2 2 2 2 2 2 2 0 2 0 0 0 2 2 2 0 0 2 0 2 0 0 2 0
         0 2 0]
         [0 0 0 2 0 2 0 0 0 0 2 2 2 2 2 2 2 0 0 0 0 0 2 2 0 0 0 2 0 2 0 0 2
         0 0 2]
         [2 0 0 2 0 0 2 0 2 0 0 0 2 2 0 0 0 0 0 2 2 2 2 2 2 2 0 0 0 0 2 0 2
         0 0 0]
         [0 2 0 0 2 0 0 2 0 2 0 0 2 2 2 0 0 0 2 0 2 2 2 2 2 2 2 0 0 0 0 2 0
         2 0 0]
         [0 0 2 0 0 2 2 0 2 0 2 0 0 2 2 2 0 0 2 2 0 2 2 2 0 2 2 2 0 0 2 0 2
         0 2 0]
         [2 0 0 2 0 0 0 2 0 2 0 2 0 0 2 2 2 0 2 2 2 0 2 2 0 0 2 2 2 0 0 2 0
         2 0 2]
         [0 2 0 0 2 0 0 0 2 0 2 0 0 0 0 2 2 2 2 2 2 2 0 2 0 0 0 2 2 2 0 0 2
         0 2 0]
         [0 0 2 0 0 2 0 0 0 2 0 2 0 0 0 0 2 2 2 2 2 2 2 0 0 0 0 0 2 2 0 0 0
         2 0 2]
         [2 0 0 0 2 0 2 0 0 2 0 0 2 0 2 0 0 0 2 2 0 0 0 0 0 2 2 2 2 2 2 2 0
         0 0 0]
         [0 2 0 0 0 2 0 2 0 0 2 0 0 2 0 2 0 0 2 2 2 0 0 0 2 0 2 2 2 2 2 2 2
         0 0 0]
         [0 0 2 0 0 0 0 0 2 0 0 2 2 0 2 0 2 0 0 2 2 2 0 0 2 2 0 2 2 2 0 2 2
         2 0 0]
         [0 0 0 2 0 0 2 0 0 2 0 0 0 2 0 2 0 2 0 0 2 2 2 0 2 2 2 0 2 2 0 0 2
         2 2 0]
         [2 0 0 0 2 0 0 2 0 0 2 0 0 0 2 0 2 0 0 0 0 2 2 2 2 2 2 2 0 2 0 0 0
         2 2 2]
         [0 2 0 0 0 2 0 0 2 0 0 2 0 0 0 2 0 2 0 0 0 0 2 2 2 2 2 2 2 0 0 0 0
         0 2 2]
         [2 0 0 0 0 2 2 0 0 0 2 0 2 0 0 2 0 0 2 0 2 0 0 0 2 2 0 0 0 0 0 2 2
         2 2 2]
         [0 2 0 0 0 0 0 2 0 0 0 2 0 2 0 0 2 0 0 2 0 2 0 0 2 2 2 0 0 0 2 0 2
         2 2 2]
         [0 0 2 0 0 0 0 0 2 0 0 0 0 0 2 0 0 2 2 0 2 0 2 0 0 2 2 2 0 0 2 2 0
         2 2 2]
         [0 0 0 2 0 0 0 0 0 2 0 0 2 0 0 2 0 0 0 2 0 2 0 2 0 0 2 2 2 0 2 2 2
         0 2 2]
         [0 0 0 0 2 0 2 0 0 0 2 0 0 2 0 0 2 0 0 0 2 0 2 0 0 0 0 2 2 2 2 2 2
         2 0 2]
         [2 0 0 0 0 2 0 2 0 0 0 2 0 0 2 0 0 2 0 0 0 2 0 2 0 0 0 0 2 2 2 2 2
         2 2 0]]

<<< post process


<<< done

